c --- [ banner ] -------------------------------------------------------------
c 
c CaDiCaL Radically Simplified CDCL SAT Solver
c Copyright (c) 2016-2021 A. Biere, M. Fleury, N. Froleyks
c 
c Version 1.5.2 a5f15211db36c3956764e18194dd5bd63bf3b5e6
c g++ (GCC) 9.3.0 -Wall -Wextra -O3 -DNDEBUG
c Fri Oct 21 01:27:37 EDT 2022 Linux gra-login3 3.10.0-1160.66.1.el7.x86_64 x86_64
c 
c --- [ limit ] --------------------------------------------------------------
c 
c setting conflict limit to 200000 conflicts (due to '200000')
c 
c --- [ parsing input ] ------------------------------------------------------
c 
c reading DIMACS file from '33.cubes2671.adj'
c opening file to read '33.cubes2671.adj'
c found 'p cnf 6160 1595476' header
c parsed 1595476 clauses in 17.21 seconds process time
c closing file '33.cubes2671.adj'
c after reading 1457566781 bytes 1390.0 MB
c 
c --- [ options ] ------------------------------------------------------------
c 
c all options are set to their default value
c 
c --- [ solving ] ------------------------------------------------------------
c 
c time measured in process time since initialization
c 
c  seconds    reductions  redundant   irredundant
c          MB     restarts       trail       variables
c            level   conflicts       glue         remaining
c 
c * 17.21 1377  0 0   0    0    0  0% 0 1595422 2384 39%
c { 18.07 1426  0 0   0    0    0  0% 0 1595422 2384 39%
c i 20.93 1503 384 0   7   55   42 31% 21 1595422 2383 39%
c i 21.58 1508 214 0  14  103   78 30% 20 1595422 2382 39%
c i 21.61 1508 209 0  14  106   80 30% 20 1595422 2381 39%
c i 21.79 1508 193 0  14  117   90 30% 20 1595422 2380 39%
c i 21.79 1508 189 0  14  120   91 30% 20 1595422 2379 39%
c i 21.83 1509 187 0  14  122   92 30% 21 1595422 2378 39%
c i 21.84 1509 185 0  14  123   92 30% 21 1595422 2377 39%
c i 21.84 1509 183 0  14  124   92 30% 20 1595422 2376 39%
c i 21.85 1509 181 0  14  126   93 30% 21 1595422 2375 39%
c i 21.86 1509 180 0  14  127   93 30% 21 1595422 2374 39%
c i 22.03 1509 171 0  16  138  102 30% 22 1595422 2373 39%
c i 22.46 1512 160 0  21  162  122 29% 22 1595422 2372 39%
c i 22.82 1512 156 0  26  189  147 29% 28 1595422 2371 38%
c i 23.01 1513 152 0  28  197  154 29% 29 1595422 2363 38%
c i 23.78 1518 131 0  40  249  200 29% 30 1595422 2362 38%
c i 23.84 1518 131 0  41  255  204 29% 30 1595422 2361 38%
c i 23.90 1518 128 0  44  262  209 29% 30 1595422 2360 38%
c i 23.92 1518 127 0  44  265  211 29% 31 1595422 2346 38%
c 
c  seconds     reductions  redundant    irredundant
c          MB      restarts       trail        variables
c             level   conflicts       glue          remaining
c 
c i 24.10 1519 119 0  52  302  239 29% 31 1595422 2344 38%
c - 27.48 1507 119 1  52  302  238 29% 31 297113 2344 38%
c i 27.75 1406 121 1  57  318  253 29% 32 297113 2343 38%
c i 27.83 1406 119 1  60  326  260 29% 31 297113 2342 38%
c i 27.83 1406 119 1  60  327  260 29% 31 297113 2341 38%
c i 27.84 1406 118 1  60  330  262 29% 31 297113 2340 38%
c i 27.87 1406 116 1  60  338  265 29% 31 297113 2339 38%
c i 27.88 1406 114 1  60  343  267 29% 31 297113 2338 38%
c i 27.89 1406 112 1  60  351  274 29% 31 297113 2337 38%
c i 27.90 1406 111 1  60  358  280 29% 30 297113 2336 38%
c i 27.90 1406 111 1  60  359  280 29% 30 297113 2335 38%
c i 27.92 1406 110 1  60  363  283 29% 30 297113 2334 38%
c i 27.92 1406 109 1  60  365  284 29% 30 297113 2333 38%
c i 27.94 1406 108 1  60  371  289 29% 30 297113 2332 38%
c i 27.95 1406 107 1  60  375  292 29% 30 297113 2331 38%
c i 27.95 1406 107 1  60  377  293 29% 30 297113 2330 38%
c i 27.95 1406 106 1  60  380  294 29% 30 297113 2329 38%
c i 27.98 1406 101 1  60  409  314 29% 29 297113 2328 38%
c i 28.00 1406 98 1  60  425  326 29% 29 297113 2327 38%
c i 28.01 1406 97 1  60  431  331 29% 29 297113 2326 38%
c 
c  seconds    reductions  redundant   irredundant
c          MB     restarts       trail       variables
c            level   conflicts       glue         remaining
c 
c i 28.01 1406 97 1  60  433  332 29% 29 297113 2325 38%
c i 28.01 1406 96 1  60  435  333 29% 29 297113 2324 38%
c i 28.02 1406 94 1  60  446  341 29% 28 297113 2323 38%
c i 28.38 1406 81 1  63  582  448 29% 27 297113 2320 38%
c i 28.78 1407 77 1  66  656  510 28% 26 297113 2319 38%
c i 28.78 1407 77 1  66  658  511 28% 26 297113 2318 38%
c i 28.78 1407 77 1  66  660  512 28% 26 297113 2317 38%
c i 29.07 1407 76 1  72  721  555 28% 28 297113 2316 38%
c i 29.10 1407 76 1  74  728  560 28% 28 297113 2315 38%
c i 29.13 1407 76 1  76  737  568 28% 28 297113 2314 38%
c i 29.31 1407 75 1  84  775  600 29% 28 297113 2313 38%
c i 29.76 1407 74 1 101  854  672 28% 29 297113 2312 38%
c i 29.78 1407 73 1 101  871  686 29% 29 297113 2311 38%
c i 29.79 1407 73 1 101  873  687 29% 28 297113 2310 38%
c i 29.88 1407 72 1 101  903  714 29% 29 297113 2309 37%
c i 30.00 1407 73 1 104  915  724 29% 30 297113 2308 37%
c i 30.09 1407 74 1 106  926  730 29% 30 297113 2307 37%
c i 30.31 1407 74 1 111  948  749 29% 30 297113 2306 37%
c i 30.40 1407 74 1 114  959  758 29% 30 297113 2305 37%
c i 30.40 1407 74 1 114  961  759 29% 30 297113 2304 37%
c 
c  seconds    reductions  redundant   irredundant
c          MB     restarts       trail       variables
c            level   conflicts       glue         remaining
c 
c i 30.40 1407 74 1 115  963  760 29% 30 297113 2303 37%
c i 30.45 1407 74 1 116  970  765 29% 30 297113 2301 37%
c i 30.54 1407 75 1 120  984  778 29% 31 297113 2300 37%
c i 30.59 1407 75 1 123  995  788 29% 31 297113 2299 37%
c } 30.64 1407 75 1 125 1000  793 29% 31 297113 2299 37%
c [ 30.64 1407  0 1 125 1000  793  0% 0 297113 2299 37%
c O 30.65 1407 52 1 125 1003  795 21% 5 297113 2299 37%
c i 30.65 1407 52 1 125 1003  795 21% 5 297113 2284 37%
c i 30.85 1407 17 1 125 1021  812 25% 4 297113 2283 37%
c i 30.86 1407 16 1 125 1024  814 26% 5 297113 2282 37%
c i 30.93 1407 18 1 125 1041  828 29% 10 297113 2281 37%
c i 30.94 1407 18 1 125 1048  833 29% 10 297113 2280 37%
c i 30.95 1407 18 1 125 1052  835 30% 10 297113 2279 37%
c i 30.96 1407 18 1 125 1056  837 30% 10 297113 2278 37%
c i 31.07 1407 19 1 125 1140  902 30% 13 297113 2277 37%
c i 31.08 1407 19 1 125 1149  908 30% 13 297113 2276 37%
c i 31.13 1407 20 1 125 1182  928 31% 14 297113 2275 37%
c - 31.63 1537 20 2 125 1185  806 31% 15 296711 2275 37%
c i 31.74 1537 22 2 125 1223  833 31% 16 296711 2274 37%
c i 31.85 1537 22 2 125 1363  926 31% 17 296711 2273 37%
c 
c  seconds    reductions  redundant   irredundant
c          MB     restarts       trail       variables
c            level   conflicts       glue         remaining
c 
c i 31.92 1537 21 2 125 1449  996 31% 16 296711 2272 37%
c i 31.96 1537 21 2 125 1486 1027 31% 17 296711 2271 37%
c - 32.69 1536 21 3 126 2510 1386 32% 17 296699 2271 37%
c i 32.98 1536 21 3 126 2669 1489 55% 17 296699 2270 37%
c ] 33.11 1536 21 3 126 3001 1710 54% 17 296699 2270 37%
c { 33.11 1536 75 3 126 3001 1710 78% 31 296699 2270 37%
c F 33.12 1536 75 3 128 3005 1714 77% 31 296699 2270 37%
c i 33.21 1536 75 3 129 3013 1720 77% 31 296699 2269 37%
c i 33.38 1536 63 3 130 3272 1890 71% 27 296699 2268 37%
c i 33.56 1536 57 3 130 3444 2014 68% 25 296699 2267 37%
c - 34.06 1408 48 4 134 4276 1866 60% 24 296687 2267 37%
c i 34.27 1408 48 4 140 4317 1903 60% 24 296687 2266 37%
c i 37.52 1408 55 4 258 4845 2350 57% 28 296687 2265 37%
c i 38.28 1408 55 4 280 4960 2449 56% 29 296687 2264 37%
c 2 38.95 1408 55 4 280 5000 3544 56% 29 296643 2253 37%
c p 44.41 1408 55 4 280 5000 6290 56% 29 296643 2195 36%
c d 44.91 1408 55 4 280 5000 6253 56% 29 296470 2194 36%
c # 45.62 1408 47 4 281 6006 7052 55% 26 296470 2194 36%
c - 46.28 1527 46 5 289 6486 2758 54% 26 296470 2194 36%
c } 47.76 1527 47 5 383 7005 3212 53% 27 296470 2194 36%
c 
c  seconds    reductions  redundant   irredundant
c          MB     restarts       trail       variables
c            level   conflicts       glue         remaining
c 
c [ 47.76 1527 21 5 383 7005 3212 54% 17 296470 2194 36%
c - 48.44 1408 28 6 384 9142 3031 50% 24 296470 2194 36%
c I 48.72 1408 29 6 385 10007 3559 49% 25 296470 2194 36%
c - 50.88 1410 46 7 387 12233 3737 49% 37 296470 2194 36%
c p 54.46 1410 47 7 388 15004 9394 50% 39 296470 2194 36%
c ] 54.55 1410 47 7 388 15007 9396 50% 39 296470 2194 36%
c { 54.55 1410 47 7 388 15007 9396 53% 27 296470 2194 36%
c B 54.56 1410 47 7 388 15008 9397 53% 27 296470 2194 36%
c i 54.57 1410 47 7 388 15014 9399 53% 27 296470 2193 36%
c - 57.41 1410 49 8 470 15768 4386 52% 28 296467 2193 36%
c i 59.97 1410 41 8 536 18359 6008 50% 24 296467 2179 35%
c s 62.73 1410 42 8 639 18774 6136 50% 25 294653 2179 35%
c v 67.31 1411 42 8 639 18774 6136 50% 25 294582 2179 35%
c t 67.41 1411 42 8 639 18774 6123 50% 25 294575 2179 35%
c e 68.05 1412 42 8 639 18774 5815 50% 25 291539 769 12%
c s 68.14 1412 42 8 639 18774 5813 50% 25 289998 769 12%
c - 71.41 1412 42 9 715 19746 4539 74% 26 289998 769 12%
c W 72.73 1412 40 9 718 21010 5471 74% 25 289998 769 12%
c i 74.50 1412 41 9 812 21429 5831 74% 26 289998 768 12%
c - 76.35 1412 37 10 847 24136 5212 74% 24 289995 768 12%
c 
c  seconds    reductions     redundant   irredundant
c          MB      restarts         trail       variables
c            level      conflicts       glue        remaining
c 
c F 81.68 1412 36 10 1051 28011 7831 74% 24 289995 768 12%
c - 82.22 1412 35 11 1051 28965 6001 75% 23 289995 768 12%
c 3 83.60 1412 35 11 1108 30004 7062 75% 24 289995 768 12%
c p 87.11 1412 35 11 1108 30004 9407 75% 24 289995 762 12%
c } 87.82 1412 34 11 1108 31008 10097 75% 23 289995 762 12%
c [ 87.82 1412 47 11 1108 31008 10097 146% 39 289995 762 12%
c - 89.38 1412 41 12 1109 34231 6759 126% 34 289977 762 12%
c B 90.04 1412 39 12 1111 36015 8088 119% 32 289977 762 12%
c - 91.79 1412 39 13 1114 39935 7578 108% 32 289977 762 12%
c W 94.94 1412 39 13 1115 45020 11173 100% 32 289977 762 12%
c - 95.55 1412 38 14 1116 46077 7792 99% 32 289977 762 12%
c 3 97.08 1412 37 14 1116 50007 10628 95% 32 289977 762 12%
c p 98.65 1412 37 14 1116 50007 12965 95% 32 289977 762 12%
c - 100.12 1412 38 15 1116 52662 8211 93% 32 289977 762 12%
c s 100.43 1412 38 15 1116 53010 8454 93% 32 288526 762 12%
c v 103.07 1412 38 15 1116 53010 8454 93% 32 288489 762 12%
c t 103.21 1412 38 15 1116 53010 8453 93% 32 288489 762 12%
c s 103.97 1412 38 15 1116 53010 8453 93% 32 286882 762 12%
c O 106.12 1412 38 15 1117 55022 9777 92% 33 286882 762 12%
c ] 106.82 1412 38 15 1119 56491 10830 91% 32 286882 762 12%
c 
c  seconds     reductions      redundant   irredundant
c           MB      restarts          trail       variables
c             level      conflicts        glue        remaining
c 
c 1 106.82 1412 38 15 1119 56491 10830 91% 32 286882 762 12%
c 
c --- [ writing output ] -----------------------------------------------------
c 
c writing simplified CNF to DIMACS file 'simp/33.cubes2671.adj.simp1'
c * 106.82 1412 38 15 1119 56491 10830 91% 32 286882 762 12%
c opening file to write 'simp/33.cubes2671.adj.simp1'
c writing 'p cnf 6160 286882' header
c closing file 'simp/33.cubes2671.adj.simp1'
c after writing 131950534 bytes 125.8 MB
c wrote 286882 clauses in 0.78 seconds process time
c 
c --- [ writing extension ] --------------------------------------------------
c 
c writing extension stack to 'simp/33.cubes2671.adj.ext1'
c opening file to write 'simp/33.cubes2671.adj.ext1'
c closing file 'simp/33.cubes2671.adj.ext1'
c after writing 91921 bytes 0.1 MB
c wrote 4061 witnesses in 0.00 seconds process time
c 
c --- [ result ] -------------------------------------------------------------
c 
s SATISFIABLE
c 
c --- [ run-time profiling ] -------------------------------------------------
c 
c process time taken by individual solving procedures
c (percentage relative to process time for solving)
c 
c        65.92   73.56% search
c        44.15   49.26% unstable
c        23.70   26.44% simplify
c        19.74   22.03% stable
c        17.21   19.20% parse
c        12.18   13.59% probe
c         7.39    8.25% vivify
c         2.32    2.59% elim
c         1.17    1.30% walk
c         0.86    0.96% lucky
c         0.50    0.56% subsume
c         0.13    0.14% ternary
c   =================================
c        89.61   83.28% solve
c 
c last line shows process time for solving
c (percentage relative to total process time)
c 
c --- [ statistics ] ---------------------------------------------------------
c 
c chronological:             10138        17.95 %  of conflicts
c conflicts:                 56491       630.39    per second
c decisions:                144930      1617.29    per second
c eliminated:                 1410        22.89 %  of all variables
c fixed:                       832        13.51 %  of all variables
c learned:                   55358        97.99 %  per conflict
c learned_lits:           10491021       100.00 %  learned literals
c minimized:                     0         0.00 %  learned literals
c shrunken:                6611869        63.02 %  learned literals
c minishrunken:             705480         6.72 %  learned literals
c propagations:            5002103         0.06 M  per second
c reduced:                   28214        49.94 %  per conflict
c rephased:                     10      5649.10    interval
c restarts:                   1119        50.48    interval
c stabilizing:                   3        62.82 %  of conflicts
c substituted:                  12         0.19 %  of all variables
c subsumed:                  22490         0.65 %  of all clauses
c strengthened:               7781         0.22 %  of all clauses
c ternary:                    2912         0.64 %  of resolved
c vivified:                     80         0.00 %  of all clauses
c walked:                        2     28245.50    interval
c weakened:                   3229         3.07    average size
c 
c seconds are measured in process time for solving
c 
c --- [ resources ] ----------------------------------------------------------
c 
c total process time since initialization:       107.61    seconds
c total real time since initialization:          108.20    seconds
c maximum resident set size of process:         1665.56    MB
c 
c --- [ shutting down ] ------------------------------------------------------
c 
c exit 10
WARNING! DIMACS header mismatch: wrong number of variables.
============================[ Problem Statistics ]=============================
|                                                                             |
|  Number of variables:          3099                                         |
|  Number of clauses:          286882                                         |
|  Parse time:                   1.85 s                                       |
|  Simplification time:          0.04 s                                       |
|                                                                             |
============================[ Search Statistics ]====================================================
| Conflicts |          ORIGINAL         |          LEARNT          | Num Sols |      SUBGRAPHS      |
|           |    Vars  Clauses Literals |    Limit  Clauses Lit/Cl |          | Canonical Noncanon. |
=====================================================================================================
|       101 |    3007   286883 28398165 |     2000      101    113 |        0 |        16         1 |
|       285 |    3007   286917 28398763 |     2000      285     94 |        0 |        48        35 |
|       512 |    3007   286919 28398837 |     2000      512    114 |        0 |        53        37 |
|       860 |    3007   286930 28399162 |     2000      860    109 |        0 |        66        48 |
|      1493 |    3007   287057 28401383 |     2000     1493    101 |        0 |       141       175 |
|      2439 |    3007   287244 28404729 |     3602     1441     60 |        0 |       201       362 |
|      3596 |    3007   287262 28405019 |     3602     2598     85 |        0 |       213       380 |
|      5632 |    3007   287590 28411106 |     5002     2834     61 |        0 |       311       708 |
|      8221 |    3007   287617 28411835 |     6304     2925     48 |        0 |       321       735 |
|     12447 |    3007   287999 28418081 |     7553     4000     44 |        0 |       462      1117 |
|     18773 |    3007   288559 28425346 |     8787     6560     59 |        0 |       646      1677 |
|     28178 |    3007   289315 28437562 |    11204     6582     38 |        0 |       863      2433 |
|     41571 |    3007   289734 28445096 |    13612     8183     41 |        0 |      1074      2852 |
|     61310 |    3007   290012 28450704 |    16009    13719     60 |        0 |      1270      3130 |
|     91116 |    3007   290626 28462636 |    19618    17734     56 |        0 |      1545      3744 |
|    135123 |    3007   290844 28467931 |    24414    18937     58 |        0 |      1759      3962 |
|    201290 |    3007   291327 28476330 |    30415    18105     43 |        0 |      2029      4445 |
|    300489 |    3007   292000 28488527 |    36418    35307     67 |        0 |      2357      5118 |
|    448753 |    3007   292475 28501479 |    44811    43564     67 |        1 |      2807      5592 |
|    672953 |    3007   294992 28550403 |    55617    44570     68 |        1 |      3864      8109 |
|   1006957 |    3007   296471 28582910 |    68821    39778     48 |        1 |      5046      9588 |
|   1508318 |    3007   299044 28641228 |    84413    47131     43 |        3 |      6581     12159 |
|   2259141 |    3007   301685 28706930 |   102419   101960     67 |        3 |      8500     14800 |
|   3386591 |    3007   306861 28832646 |   126420    91411     56 |        4 |     11832     19975 |
|   5075756 |    3007   312615 28962242 |   155237    98193     52 |        6 |     14955     25727 |
=====================================================================================================
Number of solutions   : 6
Canonical subgraphs   : 15843          (11 /sec)
          order  3    : 1              (200000 /sec)
          order  4    : 1              (500000 /sec)
          order  5    : 1              (200000 /sec)
          order  6    : 1              (50000 /sec)
          order  7    : 1              (7874 /sec)
          order  8    : 2              (1294 /sec)
          order  9    : 5              (266 /sec)
          order 10    : 13             (57 /sec)
          order 11    : 56             (16 /sec)
          order 12    : 234            (17 /sec)
          order 13    : 265            (26 /sec)
          order 14    : 859            (19 /sec)
          order 15    : 2743           (14 /sec)
          order 16    : 3551           (11 /sec)
          order 17    : 4978           (10 /sec)
          order 18    : 2068           (8 /sec)
          order 19    : 448            (10 /sec)
          order 20    : 306            (11 /sec)
          order 21    : 304            (11 /sec)
          order 22    : 6              (1 /sec)
Noncanonical subgraphs: 27340          (119 /sec)
          order  3    : 0              (-nan /sec)
          order  4    : 0              (-nan /sec)
          order  5    : 0              (-nan /sec)
          order  6    : 0              (-nan /sec)
          order  7    : 0              (-nan /sec)
          order  8    : 0              (-nan /sec)
          order  9    : 0              (-nan /sec)
          order 10    : 0              (-nan /sec)
          order 11    : 0              (-nan /sec)
          order 12    : 0              (-nan /sec)
          order 13    : 2039           (6302 /sec)
          order 14    : 3574           (1143 /sec)
          order 15    : 4880           (883 /sec)
          order 16    : 2060           (437 /sec)
          order 17    : 14170          (80 /sec)
          order 18    : 304            (39 /sec)
          order 19    : 0              (-nan /sec)
          order 20    : 0              (-nan /sec)
          order 21    : 0              (-nan /sec)
Canonicity checking   : 1454.98 s
Noncanonicity checking: 229.12 s
Total canonicity time : 1684.1 s
database reductions   : 136
restarts              : 9213
conflicts             : 5788664        (1544 /sec)
decisions             : 7058068        (0.00 % random) (1882 /sec)
propagations          : 239973613      (63995 /sec)
conflict literals     : 595050392      (56.74 % deleted)
actual reward         : 0.306672
Memory used           : 396.00 MB
CPU time              : 3749.87 s

UNSATISFIABLE
